nK = 567;
nT = 4;
nI = 7;
L = 35;
TT = 156;
np = 1;
nc = 3;
b = [47, 24, 48, 40, 34, 35, 50];
d = [121, 41, 118, 87, 122, 122, 95];
m = [1.9, 1.1, 2.4, 1.2, 1, 2, 1.1];
pt = [0.28, 0.29, 0.31, 0.25];
st = [12.88, 16.24, 17.98, 14.25];
arc = {<1, 0, 1, 1, 0, 0, 0, [1, 1, 1, 1]>, <2, 1, 2, 1, 0, 0, 0, [1, 1, 1, 1]>, <3, 2, 3, 1, 0, 0, 0, [1, 1, 1, 1]>, <4, 3, 4, 1, 0, 0, 0, [1, 1, 1, 1]>, <5, 4, 5, 1, 0, 0, 0, [1, 1, 1, 1]>, <6, 5, 6, 1, 0, 0, 0, [1, 1, 1, 1]>, <7, 6, 7, 1, 0, 0, 0, [1, 1, 1, 1]>, <8, 7, 8, 1, 0, 0, 0, [1, 1, 1, 1]>, <9, 8, 9, 1, 0, 0, 0, [1, 1, 1, 1]>, <10, 9, 10, 1, 0, 0, 0, [1, 1, 1, 1]>, <11, 10, 11, 1, 0, 0, 0, [1, 1, 1, 1]>, <12, 11, 12, 1, 0, 0, 0, [1, 1, 1, 1]>, <13, 12, 13, 1, 0, 0, 0, [1, 1, 1, 1]>, <14, 13, 14, 1, 0, 0, 0, [1, 1, 1, 1]>, <15, 14, 15, 1, 0, 0, 0, [1, 1, 1, 1]>, <16, 15, 16, 1, 0, 0, 0, [1, 1, 1, 1]>, <17, 16, 17, 1, 0, 0, 0, [1, 1, 1, 1]>, <18, 17, 18, 1, 0, 0, 0, [1, 1, 1, 1]>, <19, 18, 19, 1, 0, 0, 0, [1, 1, 1, 1]>, <20, 19, 20, 1, 0, 0, 0, [1, 1, 1, 1]>, <21, 20, 21, 1, 0, 0, 0, [1, 1, 1, 1]>, <22, 21, 22, 1, 0, 0, 0, [1, 1, 1, 1]>, <23, 22, 23, 1, 0, 0, 0, [1, 1, 1, 1]>, <24, 23, 24, 1, 0, 0, 0, [1, 1, 1, 1]>, <25, 24, 25, 1, 0, 0, 0, [1, 1, 1, 1]>, <26, 25, 26, 1, 0, 0, 0, [1, 1, 1, 1]>, <27, 26, 27, 1, 0, 0, 0, [1, 1, 1, 1]>, <28, 27, 28, 1, 0, 0, 0, [1, 1, 1, 1]>, <29, 28, 29, 1, 0, 0, 0, [1, 1, 1, 1]>, <30, 29, 30, 1, 0, 0, 0, [1, 1, 1, 1]>, <31, 30, 31, 1, 0, 0, 0, [1, 1, 1, 1]>, <32, 31, 32, 1, 0, 0, 0, [1, 1, 1, 1]>, <33, 32, 33, 1, 0, 0, 0, [1, 1, 1, 1]>, <34, 33, 34, 1, 0, 0, 0, [1, 1, 1, 1]>, <35, 34, 35, 1, 0, 0, 0, [1, 1, 1, 1]>, <36, 4, 17, 13, 1, 1, 0, [1, 1, 0, 0]>, <37, 5, 18, 13, 1, 1, 0, [1, 1, 0, 0]>, <38, 6, 19, 13, 1, 1, 0, [1, 1, 0, 0]>, <39, 13, 26, 13, 1, 1, 0, [1, 1, 0, 0]>, <40, 14, 27, 13, 1, 1, 0, [1, 1, 0, 0]>, <41, 15, 28, 13, 1, 1, 0, [1, 1, 0, 0]>, <42, 18, 31, 13, 1, 1, 0, [1, 1, 0, 0]>, <43, 19, 32, 13, 1, 1, 0, [1, 1, 0, 0]>, <44, 20, 33, 13, 1, 1, 0, [1, 1, 0, 0]>, <45, 21, 34, 13, 1, 1, 0, [1, 1, 0, 0]>, <46, 22, 35, 13, 1, 1, 0, [1, 1, 0, 0]>, <47, 3, 17, 14, 2, 0, 0, [1, 0, 0, 1]>, <48, 4, 18, 14, 2, 0, 0, [1, 0, 0, 1]>, <49, 5, 19, 14, 2, 0, 0, [1, 0, 0, 1]>, <50, 6, 20, 14, 2, 0, 0, [1, 0, 0, 1]>, <51, 12, 26, 14, 2, 0, 0, [1, 0, 0, 1]>, <52, 13, 27, 14, 2, 0, 0, [1, 0, 0, 1]>, <53, 14, 28, 14, 2, 0, 0, [1, 0, 0, 1]>, <54, 15, 29, 14, 2, 0, 0, [1, 0, 0, 1]>, <55, 17, 31, 14, 2, 0, 0, [1, 0, 0, 1]>, <56, 18, 32, 14, 2, 0, 0, [1, 0, 0, 1]>, <57, 19, 33, 14, 2, 0, 0, [1, 0, 0, 1]>, <58, 20, 34, 14, 2, 0, 0, [1, 0, 0, 1]>, <59, 21, 35, 14, 2, 0, 0, [1, 0, 0, 1]>, <60, 5, 16, 11, 3, 0, 1, [0, 0, 1, 1]>, <61, 6, 17, 11, 3, 0, 1, [0, 0, 1, 1]>, <62, 14, 25, 11, 3, 0, 1, [0, 0, 1, 1]>, <63, 15, 26, 11, 3, 0, 1, [0, 0, 1, 1]>, <64, 20, 31, 11, 3, 0, 1, [0, 0, 1, 1]>, <65, 21, 32, 11, 3, 0, 1, [0, 0, 1, 1]>, <66, 22, 33, 11, 3, 0, 1, [0, 0, 1, 1]>, <67, 23, 34, 11, 3, 0, 1, [0, 0, 1, 1]>, <68, 24, 35, 11, 3, 0, 1, [0, 0, 1, 1]>, <69, 5, 14, 9, 4, 0, 1, [0, 1, 1, 0]>, <70, 6, 15, 9, 4, 0, 1, [0, 1, 1, 0]>, <71, 14, 23, 9, 4, 0, 1, [0, 1, 1, 0]>, <72, 15, 24, 9, 4, 0, 1, [0, 1, 1, 0]>, <73, 22, 31, 9, 4, 0, 1, [0, 1, 1, 0]>, <74, 23, 32, 9, 4, 0, 1, [0, 1, 1, 0]>, <75, 24, 33, 9, 4, 0, 1, [0, 1, 1, 0]>, <76, 5, 17, 12, 5, 0, 1, [0, 1, 1, 0]>, <77, 6, 18, 12, 5, 0, 1, [0, 1, 1, 0]>, <78, 14, 26, 12, 5, 0, 1, [0, 1, 1, 0]>, <79, 15, 27, 12, 5, 0, 1, [0, 1, 1, 0]>, <80, 19, 31, 12, 5, 0, 1, [0, 1, 1, 0]>, <81, 20, 32, 12, 5, 0, 1, [0, 1, 1, 0]>, <82, 21, 33, 12, 5, 0, 1, [0, 1, 1, 0]>, <83, 22, 34, 12, 5, 0, 1, [0, 1, 1, 0]>, <84, 23, 35, 12, 5, 0, 1, [0, 1, 1, 0]>, <85, 5, 14, 9, 6, 0, 0, [1, 1, 0, 0]>, <86, 6, 15, 9, 6, 0, 0, [1, 1, 0, 0]>, <87, 14, 23, 9, 6, 0, 0, [1, 1, 0, 0]>, <88, 15, 24, 9, 6, 0, 0, [1, 1, 0, 0]>, <89, 22, 31, 9, 6, 0, 0, [1, 1, 0, 0]>, <90, 23, 32, 9, 6, 0, 0, [1, 1, 0, 0]>, <91, 24, 33, 9, 6, 0, 0, [1, 1, 0, 0]>, <92, 5, 16, 11, 7, 0, 0, [1, 1, 0, 0]>, <93, 6, 17, 11, 7, 0, 0, [1, 1, 0, 0]>, <94, 14, 25, 11, 7, 0, 0, [1, 1, 0, 0]>, <95, 15, 26, 11, 7, 0, 0, [1, 1, 0, 0]>, <96, 20, 31, 11, 7, 0, 0, [1, 1, 0, 0]>, <97, 21, 32, 11, 7, 0, 0, [1, 1, 0, 0]>, <98, 22, 33, 11, 7, 0, 0, [1, 1, 0, 0]>, <99, 23, 34, 11, 7, 0, 0, [1, 1, 0, 0]>, <100, 24, 35, 11, 7, 0, 0, [1, 1, 0, 0]>};
